34
33
0
0
53
31
80
32
466
56
47
102
59
214
114
25
285
70
186
60
268
112
118
46
70
46
271
72
133
35
44
88
24
48
58
37
202
39
83
128
178
85
51
133
58
50
47
122
138
121
75
61
95
139
0
100
770
87
54
94
240
129
148
103
0
29
74
197
38
413
69
53
79
184
127
0
91
147
72
101
79
76
41
73
115
101
39
404
57
131
70
65
221
66
49
46
125
56
121
150
